NAME: instance_2554
TYPE: TSP
DIMENSION: 20
EDGE_WEIGHT_TYPE: EUC_2D
NODE_COORD_SECTION
0 10.58 20.50
1 85.89 15.45
2 20.71 67.09
3 79.27 52.51
4 64.29 44.83
5 80.74 8.46
6 62.98 53.45
7 60.93 33.33
8 60.12 88.39
9 11.03 1.66
10 11.86 10.63
11 5.48 59.40
12 27.13 49.64
13 34.37 66.46
14 33.91 42.98
15 93.93 78.17
16 76.93 53.32
17 75.46 53.11
18 4.96 59.53
19 48.48 35.29
EOF
